LPFile/ns3.lp
Minimize
+ 6.0 x137 + 6.0 x138 + 6.0 x139 + 6.0 x140 + 6.0 x141 + 6.0 x142 + 6.0 x143 + 6.0 x144 + 10.0 x170 + 10.0 x171 + 10.0 x172 + 10.0 x173 + 10.0 x174 + 10.0 x175 + 10.0 x176 + 10.0 x177 + 10.0 x178 + 6.0 x276 + 6.0 x277 + 6.0 x278 + 6.0 x279 + 6.0 x280 + 6.0 x281 + 6.0 x282 + 6.0 x283 + 6.0 x284 + 6.0 x285 + 6.0 x286 + 10.0 x377 + 10.0 x378 + 10.0 x379 + 10.0 x380 + 10.0 x381 + 10.0 x382 + 10.0 x383 + 10.0 x384 + 10.0 x385 + 10.0 x386 + 10.0 x387 + 10.0 x388 + 6.0 x424 + 6.0 x425 + 6.0 x426 + 6.0 x427 + 6.0 x428 + 6.0 x429 + 6.0 x430 + 6.0 x431 + 6.0 x432 + 6.0 x433 + 6.0 x434 + 6.0 x582 + 6.0 x583 + 6.0 x584 + 10.0 x585 + 10.0 x586 + 10.0 x587 + 16.0 x588 + 16.0 x589 + 16.0 x590 
Subject To
r_1: + x1 + x2 + x3 - 1.0 x558  = 0
r_2: - 1.0 x1 + x4 + x5 + x6 - 1.0 x582 - 1.0 x585 - 1.0 x588  = 0
r_3: - 1.0 x2 + x7 + x8 + x9 - 1.0 x583 - 1.0 x586 - 1.0 x589  = 0
r_4: - 1.0 x3 + x10 + x11 + x12 - 1.0 x584 - 1.0 x587 - 1.0 x590  = 0
r_5: - 1.0 x4 + x13 + x14 + x15  = 0
r_6: - 1.0 x5 - 1.0 x7 + x16 + x17 + x18  = 0
r_7: - 1.0 x6 - 1.0 x10 + x19 + x20 + x21  = 0
r_8: - 0.5 x8 + x22 + x23  = 0
r_9: - 0.5 x8 + x24 + x25 + x26  = 0
r_10: - 1.0 x9 - 1.0 x11 + x27 + x28 + x29  = 0
r_11: - 1.0 x12 + x30 + x31 + x32  = 0
r_12: - 1.0 x13 + x33 + x34 + x35  = 0
r_13: - 1.0 x14 - 1.0 x16 + x36 + x37 + x38  = 0
r_14: - 1.0 x15 - 1.0 x19 + x39 + x40 + x41  = 0
r_15: - 0.5 x17 - 1.0 x22 + x42 + x43  = 0
r_16: - 0.5 x17 - 1.0 x24 + x44 + x45 + x46  = 0
r_17: - 1.0 x18 - 1.0 x20 - 1.0 x27 + x47 + x48 + x49  = 0
r_18: - 1.0 x21 - 1.0 x30 + x50 + x51 + x52  = 0
r_19: - 1.0 x23 - 1.0 x25 - 0.5 x28 + x53 + x54  = 0
r_20: - 1.0 x26 - 0.5 x28 + x55 + x56 + x57  = 0
r_21: - 1.0 x29 - 1.0 x31 + x58 + x59 + x60  = 0
r_22: - 1.0 x32 + x61 + x62 + x63  = 0
r_23: - 0.5 x33 + x64 + x65  = 0
r_24: - 0.5 x33 + x66 + x67  = 0
r_25: - 1.0 x34 - 1.0 x36 + x68 + x69  = 0
r_26: - 1.0 x35 - 1.0 x39 + x70 + x71  = 0
r_27: - 0.5 x37 - 1.0 x42 + x72  = 0
r_28: - 0.5 x37 - 1.0 x44 + x73 + x74  = 0
r_29: - 1.0 x38 - 1.0 x40 - 1.0 x47 + x75 + x76  = 0
r_30: - 1.0 x41 - 1.0 x50 + x77 + x78  = 0
r_31: - 1.0 x43 - 1.0 x45 - 0.5 x48 - 1.0 x53 + x79  = 0
r_32: - 1.0 x46 - 0.5 x48 - 1.0 x55 + x80 + x81  = 0
r_33: - 1.0 x49 - 1.0 x51 - 1.0 x58 + x82 + x83  = 0
r_34: - 1.0 x52 - 1.0 x61 + x84 + x85  = 0
r_35: - 1.0 x54 - 1.0 x56 - 0.5 x59 + x86  = 0
r_36: - 1.0 x57 - 0.5 x59 + x87 + x88  = 0
r_37: - 1.0 x60 - 1.0 x62 + x89 + x90  = 0
r_38: - 1.0 x63 + x91 + x92  = 0
r_39: - 1.0 x64 + x93 + x94  = 0
r_40: - 1.0 x65 + x95 + x96  = 0
r_41: - 1.0 x66 + x97 + x98  = 0
r_42: - 1.0 x67 + x99 + x100  = 0
r_43: - 0.5 x68 + x101  = 0
r_44: - 0.5 x68 + x102 + x103  = 0
r_45: - 1.0 x69 - 1.0 x70 + x104 + x105  = 0
r_46: - 1.0 x71 + x106 + x107  = 0
r_47: - 1.0 x72 - 1.0 x73 - 0.5 x75 + x108  = 0
r_48: - 1.0 x74 - 0.5 x75 + x109 + x110  = 0
r_49: - 1.0 x76 - 1.0 x77 + x111 + x112  = 0
r_50: - 1.0 x78 + x113 + x114  = 0
r_51: - 1.0 x79 - 1.0 x80 - 0.5 x82 + x115  = 0
r_52: - 1.0 x81 - 0.5 x82 + x116 + x117  = 0
r_53: - 1.0 x83 - 1.0 x84 + x118 + x119  = 0
r_54: - 1.0 x85 + x120 + x121  = 0
r_55: - 1.0 x86 - 1.0 x87 - 0.5 x89 + x122  = 0
r_56: - 1.0 x88 - 0.5 x89 + x123 + x124  = 0
r_57: - 1.0 x90 - 1.0 x91 + x125 + x126  = 0
r_58: - 1.0 x92 + x127 + x128  = 0
r_59: - 0.5 x93 + x129 + x130  = 0
r_60: - 0.5 x93 + x131 + x132  = 0
r_61: - 1.0 x94 - 1.0 x95 + x133 + x134  = 0
r_62: - 1.0 x96 + x135 + x136  = 0
r_63: - 0.5 x97 - 1.0 x101 - 1.0 x102 - 0.5 x104 - 1.0 x108 - 1.0 x109 - 0.5 x111 - 1.0 x115 - 1.0 x116 - 0.5 x118 - 1.0 x122 - 1.0 x123 - 0.5 x125 + x137 + x138  = 0
r_64: - 0.5 x97 - 1.0 x103 - 0.5 x104 - 1.0 x110 - 0.5 x111 - 1.0 x117 - 0.5 x118 - 1.0 x124 - 0.5 x125 + x139 + x140  = 0
r_65: - 1.0 x98 - 1.0 x99 - 1.0 x105 - 1.0 x106 - 1.0 x112 - 1.0 x113 - 1.0 x119 - 1.0 x120 - 1.0 x126 - 1.0 x127 + x141 + x142  = 0
r_66: - 1.0 x100 - 1.0 x107 - 1.0 x114 - 1.0 x121 - 1.0 x128 + x143 + x144  = 0
r_67: - 1.0 x129 - 1.0 x137 + x145 + x146  = 0
r_68: - 1.0 x130 - 1.0 x138 + x147 + x148  = 0
r_69: - 1.0 x131 - 1.0 x139 + x149 + x150  = 0
r_70: - 1.0 x132 - 1.0 x140 + x151 + x152  = 0
r_71: - 1.0 x133 - 1.0 x141 + x153 + x154  = 0
r_72: - 1.0 x134 - 1.0 x142 + x155 + x156  = 0
r_73: - 1.0 x135 - 1.0 x143 + x157 + x158  = 0
r_74: - 1.0 x136 - 1.0 x144 + x159 + x160  = 0
r_75: - 1.0 x145 + x161 + x162 + x163  = 0
r_76: - 1.0 x146 - 1.0 x147 + x164 + x165 + x166  = 0
r_77: - 1.0 x148 + x167 + x168 + x169  = 0
r_78: - 1.0 x149 - 1.0 x153 - 1.0 x157 + x170 + x171 + x172  = 0
r_79: - 1.0 x150 - 1.0 x151 - 1.0 x154 - 1.0 x155 - 1.0 x158 - 1.0 x159 + x173 + x174 + x175  = 0
r_80: - 1.0 x152 - 1.0 x156 - 1.0 x160 + x176 + x177 + x178  = 0
r_81: - 1.0 x161 - 1.0 x170 + x179 + x180 + x181  = 0
r_82: - 1.0 x162 - 1.0 x171 + x182 + x183 + x184  = 0
r_83: - 1.0 x163 - 1.0 x164 - 1.0 x172 - 1.0 x173 + x185 + x186 + x187  = 0
r_84: - 1.0 x165 - 1.0 x174 + x188 + x189 + x190  = 0
r_85: - 1.0 x166 - 1.0 x167 - 1.0 x175 - 1.0 x176 + x191 + x192 + x193  = 0
r_86: - 1.0 x168 - 1.0 x177 + x194 + x195 + x196  = 0
r_87: - 1.0 x169 - 1.0 x178 + x197 + x198 + x199  = 0
r_88: - 0.5 x179 + x200 + x201  = 0
r_89: - 0.5 x179 + x202 + x203  = 0
r_90: - 1.0 x180 - 1.0 x182 + x204 + x205  = 0
r_91: - 1.0 x181 - 1.0 x185 + x206 + x207  = 0
r_92: - 0.5 x183 + x208  = 0
r_93: - 0.5 x183 + x209 + x210  = 0
r_94: - 1.0 x184 - 1.0 x186 - 1.0 x188 + x211 + x212  = 0
r_95: - 1.0 x187 - 1.0 x191 + x213 + x214  = 0
r_96: - 0.5 x189 + x215  = 0
r_97: - 0.5 x189 + x216 + x217  = 0
r_98: - 1.0 x190 - 1.0 x192 - 1.0 x194 + x218 + x219  = 0
r_99: - 1.0 x193 - 1.0 x197 + x220 + x221  = 0
r_100: - 0.5 x195 + x222  = 0
r_101: - 0.5 x195 + x223 + x224  = 0
r_102: - 1.0 x196 - 1.0 x198 + x225 + x226  = 0
r_103: - 1.0 x199 + x227 + x228  = 0
r_104: - 1.0 x200 + x229 + x230  = 0
r_105: - 1.0 x201 + x231 + x232  = 0
r_106: - 1.0 x202 + x233 + x234  = 0
r_107: - 1.0 x203 + x235 + x236  = 0
r_108: - 0.5 x204 + x237  = 0
r_109: - 0.5 x204 + x238 + x239  = 0
r_110: - 1.0 x205 - 1.0 x206 + x240 + x241  = 0
r_111: - 1.0 x207 + x242 + x243  = 0
r_112: - 1.0 x208 - 1.0 x209 - 0.5 x211 + x244  = 0
r_113: - 1.0 x210 - 0.5 x211 + x245 + x246  = 0
r_114: - 1.0 x212 - 1.0 x213 + x247 + x248  = 0
r_115: - 1.0 x214 + x249 + x250  = 0
r_116: - 1.0 x215 - 1.0 x216 - 0.5 x218 + x251  = 0
r_117: - 1.0 x217 - 0.5 x218 + x252 + x253  = 0
r_118: - 1.0 x219 - 1.0 x220 + x254 + x255  = 0
r_119: - 1.0 x221 + x256 + x257  = 0
r_120: - 1.0 x222 - 1.0 x223 - 0.5 x225 + x258  = 0
r_121: - 1.0 x224 - 0.5 x225 + x259 + x260  = 0
r_122: - 1.0 x226 - 1.0 x227 + x261 + x262  = 0
r_123: - 1.0 x228 + x263 + x264  = 0
r_124: - 0.5 x229 + x265 + x266  = 0
r_125: - 0.5 x229 + x267 + x268 + x269  = 0
r_126: - 1.0 x230 - 1.0 x231 + x270 + x271 + x272  = 0
r_127: - 1.0 x232 + x273 + x274 + x275  = 0
r_128: - 0.5 x233 - 1.0 x237 - 1.0 x238 - 0.5 x240 - 1.0 x244 - 1.0 x245 - 0.5 x247 - 1.0 x251 - 1.0 x252 - 0.5 x254 - 1.0 x258 - 1.0 x259 - 0.5 x261 + x276 + x277  = 0
r_129: - 0.5 x233 - 1.0 x239 - 0.5 x240 - 1.0 x246 - 0.5 x247 - 1.0 x253 - 0.5 x254 - 1.0 x260 - 0.5 x261 + x278 + x279 + x280  = 0
r_130: - 1.0 x234 - 1.0 x235 - 1.0 x241 - 1.0 x242 - 1.0 x248 - 1.0 x249 - 1.0 x255 - 1.0 x256 - 1.0 x262 - 1.0 x263 + x281 + x282 + x283  = 0
r_131: - 1.0 x236 - 1.0 x243 - 1.0 x250 - 1.0 x257 - 1.0 x264 + x284 + x285 + x286  = 0
r_132: - 1.0 x265 - 1.0 x276 + x287 + x288  = 0
r_133: - 1.0 x266 - 1.0 x268 - 0.5 x271 - 1.0 x277 - 1.0 x279 - 0.5 x282 + x289 + x290  = 0
r_134: - 1.0 x267 - 1.0 x278 + x291 + x292 + x293  = 0
r_135: - 1.0 x269 - 0.5 x271 - 1.0 x280 - 0.5 x282 + x294 + x295 + x296  = 0
r_136: - 1.0 x270 - 1.0 x281 + x297 + x298 + x299  = 0
r_137: - 1.0 x272 - 1.0 x274 - 1.0 x283 - 1.0 x285 + x300 + x301 + x302  = 0
r_138: - 1.0 x273 - 1.0 x284 + x303 + x304 + x305  = 0
r_139: - 1.0 x275 - 1.0 x286 + x306 + x307 + x308  = 0
r_140: - 1.0 x287 + x309 + x310  = 0
r_141: - 1.0 x288 - 1.0 x289 - 1.0 x292 - 0.5 x298 + x311 + x312  = 0
r_142: - 1.0 x290 - 1.0 x295 - 0.5 x301 + x313 + x314  = 0
r_143: - 1.0 x291 + x315 + x316  = 0
r_144: - 1.0 x293 - 1.0 x294 - 0.5 x298 + x317 + x318  = 0
r_145: - 1.0 x296 - 0.5 x301 + x319 + x320  = 0
r_146: - 1.0 x297 + x321 + x322  = 0
r_147: - 1.0 x299 - 1.0 x300 - 1.0 x304 + x323 + x324  = 0
r_148: - 1.0 x302 - 1.0 x307 + x325 + x326  = 0
r_149: - 1.0 x303 + x327 + x328  = 0
r_150: - 1.0 x305 - 1.0 x306 + x329 + x330  = 0
r_151: - 1.0 x308 + x331 + x332  = 0
r_152: - 1.0 x309 + x333 + x334  = 0
r_153: - 1.0 x310 - 1.0 x311 + x335 + x336  = 0
r_154: - 1.0 x312 - 1.0 x313 + x337 + x338  = 0
r_155: - 1.0 x314 + x339 + x340  = 0
r_156: - 1.0 x315 + x341 + x342  = 0
r_157: - 1.0 x316 - 1.0 x317 + x343 + x344  = 0
r_158: - 1.0 x318 - 1.0 x319 + x345 + x346  = 0
r_159: - 1.0 x320 + x347 + x348  = 0
r_160: - 1.0 x321 + x349 + x350  = 0
r_161: - 1.0 x322 - 1.0 x323 + x351 + x352  = 0
r_162: - 1.0 x324 - 1.0 x325 + x353 + x354  = 0
r_163: - 1.0 x326 + x355 + x356  = 0
r_164: - 1.0 x327 + x357 + x358  = 0
r_165: - 1.0 x328 - 1.0 x329 + x359 + x360  = 0
r_166: - 1.0 x330 - 1.0 x331 + x361 + x362  = 0
r_167: - 1.0 x332 + x363 + x364  = 0
r_168: - 0.5 x333 + x365 + x366  = 0
r_169: - 0.5 x333 + x367 + x368  = 0
r_170: - 1.0 x334 - 1.0 x335 + x369 + x370  = 0
r_171: - 1.0 x336 - 1.0 x337 + x371 + x372  = 0
r_172: - 1.0 x338 - 1.0 x339 + x373 + x374  = 0
r_173: - 1.0 x340 + x375 + x376  = 0
r_174: - 0.5 x341 - 0.5 x349 - 0.5 x357 + x377 + x378  = 0
r_175: - 0.5 x341 - 0.5 x349 - 0.5 x357 + x379 + x380  = 0
r_176: - 1.0 x342 - 1.0 x343 - 1.0 x350 - 1.0 x351 - 1.0 x358 - 1.0 x359 + x381 + x382  = 0
r_177: - 1.0 x344 - 1.0 x345 - 1.0 x352 - 1.0 x353 - 1.0 x360 - 1.0 x361 + x383 + x384  = 0
r_178: - 1.0 x346 - 1.0 x347 - 1.0 x354 - 1.0 x355 - 1.0 x362 - 1.0 x363 + x385 + x386  = 0
r_179: - 1.0 x348 - 1.0 x356 - 1.0 x364 + x387 + x388  = 0
r_180: - 1.0 x365 - 1.0 x377 + x389 + x390  = 0
r_181: - 1.0 x366 - 1.0 x378 + x391 + x392  = 0
r_182: - 1.0 x367 - 1.0 x379 + x393 + x394  = 0
r_183: - 1.0 x368 - 1.0 x380 + x395 + x396  = 0
r_184: - 1.0 x369 - 1.0 x381 + x397 + x398  = 0
r_185: - 1.0 x370 - 1.0 x382 + x399 + x400  = 0
r_186: - 1.0 x371 - 1.0 x383 + x401 + x402  = 0
r_187: - 1.0 x372 - 1.0 x384 + x403 + x404  = 0
r_188: - 1.0 x373 - 1.0 x385 + x405 + x406  = 0
r_189: - 1.0 x374 - 1.0 x386 + x407 + x408  = 0
r_190: - 1.0 x375 - 1.0 x387 + x409 + x410  = 0
r_191: - 1.0 x376 - 1.0 x388 + x411 + x412  = 0
r_192: - 0.5 x389 + x413 + x414  = 0
r_193: - 0.5 x389 + x415 + x416 + x417  = 0
r_194: - 1.0 x390 - 1.0 x391 + x418 + x419 + x420  = 0
r_195: - 1.0 x392 + x421 + x422 + x423  = 0
r_196: - 0.5 x393 - 0.5 x397 - 0.5 x401 - 0.5 x405 - 0.5 x409 + x424 + x425  = 0
r_197: - 0.5 x393 - 0.5 x397 - 0.5 x401 - 0.5 x405 - 0.5 x409 + x426 + x427 + x428  = 0
r_198: - 1.0 x394 - 1.0 x395 - 1.0 x398 - 1.0 x399 - 1.0 x402 - 1.0 x403 - 1.0 x406 - 1.0 x407 - 1.0 x410 - 1.0 x411 + x429 + x430 + x431  = 0
r_199: - 1.0 x396 - 1.0 x400 - 1.0 x404 - 1.0 x408 - 1.0 x412 + x432 + x433 + x434  = 0
r_200: - 1.0 x413 - 1.0 x424 + x435 + x436  = 0
r_201: - 1.0 x414 - 1.0 x416 - 0.5 x419 - 1.0 x425 - 1.0 x427 - 0.5 x430 + x437 + x438  = 0
r_202: - 1.0 x415 - 1.0 x426 + x439 + x440 + x441  = 0
r_203: - 1.0 x417 - 0.5 x419 - 1.0 x428 - 0.5 x430 + x442 + x443 + x444  = 0
r_204: - 1.0 x418 - 1.0 x429 + x445 + x446 + x447  = 0
r_205: - 1.0 x420 - 1.0 x422 - 1.0 x431 - 1.0 x433 + x448 + x449 + x450  = 0
r_206: - 1.0 x421 - 1.0 x432 + x451 + x452 + x453  = 0
r_207: - 1.0 x423 - 1.0 x434 + x454 + x455 + x456  = 0
r_208: - 1.0 x435 + x457 + x458  = 0
r_209: - 1.0 x436 - 1.0 x437 - 1.0 x440 - 0.5 x446 + x459 + x460  = 0
r_210: - 1.0 x438 - 1.0 x443 - 0.5 x449 + x461 + x462  = 0
r_211: - 1.0 x439 + x463 + x464 + x465  = 0
r_212: - 1.0 x441 - 1.0 x442 - 0.5 x446 + x466 + x467 + x468  = 0
r_213: - 1.0 x444 - 0.5 x449 + x469 + x470 + x471  = 0
r_214: - 1.0 x445 + x472 + x473 + x474  = 0
r_215: - 1.0 x447 - 1.0 x448 - 1.0 x452 + x475 + x476 + x477  = 0
r_216: - 1.0 x450 - 1.0 x455 + x478 + x479 + x480  = 0
r_217: - 1.0 x451 + x481 + x482 + x483  = 0
r_218: - 1.0 x453 - 1.0 x454 + x484 + x485 + x486  = 0
r_219: - 1.0 x456 + x487 + x488 + x489  = 0
r_220: - 1.0 x457 + x490 + x491  = 0
r_221: - 1.0 x458 - 1.0 x459 - 1.0 x464 - 0.5 x473 + x492 + x493  = 0
r_222: - 1.0 x460 - 1.0 x461 - 1.0 x467 - 0.5 x476 + x494 + x495  = 0
r_223: - 1.0 x462 - 1.0 x470 - 0.5 x479 + x496 + x497  = 0
r_224: - 1.0 x463 + x498 + x499 + x500  = 0
r_225: - 1.0 x465 - 1.0 x466 - 0.5 x473 + x501 + x502 + x503  = 0
r_226: - 1.0 x468 - 1.0 x469 - 0.5 x476 + x504 + x505 + x506  = 0
r_227: - 1.0 x471 - 0.5 x479 + x507 + x508 + x509  = 0
r_228: - 1.0 x472 + x510 + x511 + x512  = 0
r_229: - 1.0 x474 - 1.0 x475 - 1.0 x482 + x513 + x514 + x515  = 0
r_230: - 1.0 x477 - 1.0 x478 - 1.0 x485 + x516 + x517 + x518  = 0
r_231: - 1.0 x480 - 1.0 x488 + x519 + x520 + x521  = 0
r_232: - 1.0 x481 + x522 + x523 + x524  = 0
r_233: - 1.0 x483 - 1.0 x484 + x525 + x526 + x527  = 0
r_234: - 1.0 x486 - 1.0 x487 + x528 + x529 + x530  = 0
r_235: - 1.0 x489 + x531 + x532 + x533  = 0
r_236: - 0.5 x490 + x534  = 0
r_237: - 0.5 x490 + x535  = 0
r_238: - 1.0 x491 - 1.0 x492 - 1.0 x499 - 0.5 x511 + x536  = 0
r_239: - 1.0 x493 - 1.0 x494 - 1.0 x502 - 0.5 x514 + x537  = 0
r_240: - 1.0 x495 - 1.0 x496 - 1.0 x505 - 0.5 x517 + x538  = 0
r_241: - 1.0 x497 - 1.0 x508 - 0.5 x520 + x539  = 0
r_242: - 0.5 x498 + x540  = 0
r_243: - 0.5 x498 + x541  = 0
r_244: - 1.0 x500 - 1.0 x501 - 0.5 x511 + x542  = 0
r_245: - 1.0 x503 - 1.0 x504 - 0.5 x514 + x543  = 0
r_246: - 1.0 x506 - 1.0 x507 - 0.5 x517 + x544  = 0
r_247: - 1.0 x509 - 0.5 x520 + x545  = 0
r_248: - 0.5 x510 + x546  = 0
r_249: - 0.5 x510 + x547  = 0
r_250: - 1.0 x512 - 1.0 x513 - 1.0 x523 + x548  = 0
r_251: - 1.0 x515 - 1.0 x516 - 1.0 x526 + x549  = 0
r_252: - 1.0 x518 - 1.0 x519 - 1.0 x529 + x550  = 0
r_253: - 1.0 x521 - 1.0 x532 + x551  = 0
r_254: - 0.5 x522 + x552  = 0
r_255: - 0.5 x522 + x553  = 0
r_256: - 1.0 x524 - 1.0 x525 + x554  = 0
r_257: - 1.0 x527 - 1.0 x528 + x555  = 0
r_258: - 1.0 x530 - 1.0 x531 + x556  = 0
r_259: - 1.0 x533 + x557  = 0
r_260: - 1.0 x534 + x558  = 0
r_261: - 1.0 x535 + x559  = 0
r_262: - 1.0 x536 + x560  = 0
r_263: - 1.0 x537 + x561  = 0
r_264: - 1.0 x538 + x562  = 0
r_265: - 1.0 x539 + x563  = 0
r_266: - 1.0 x540 + x564  = 0
r_267: - 1.0 x541 + x565  = 0
r_268: - 1.0 x542 + x566  = 0
r_269: - 1.0 x543 + x567  = 0
r_270: - 1.0 x544 + x568  = 0
r_271: - 1.0 x545 + x569  = 0
r_272: - 1.0 x546 + x570  = 0
r_273: - 1.0 x547 + x571  = 0
r_274: - 1.0 x548 + x572  = 0
r_275: - 1.0 x549 + x573  = 0
r_276: - 1.0 x550 + x574  = 0
r_277: - 1.0 x551 + x575  = 0
r_278: - 1.0 x552 + x576  = 0
r_279: - 1.0 x553 + x577  = 0
r_280: - 1.0 x554 + x578  = 0
r_281: - 1.0 x555 + x579  = 0
r_282: - 1.0 x556 + x580  = 0
r_283: - 1.0 x557 + x581  = 0
r_284: - 1.0 x559 - 1.0 x560 - 1.0 x561 - 1.0 x562 - 1.0 x563 + x582 + x583 + x584  = 0
r_285: - 1.0 x564 - 1.0 x570 - 1.0 x576 + x585 + x586 + x587  = 0
r_286: - 1.0 x565 - 1.0 x566 - 1.0 x567 - 1.0 x568 - 1.0 x569 - 1.0 x571 - 1.0 x572 - 1.0 x573 - 1.0 x574 - 1.0 x575 - 1.0 x577 - 1.0 x578 - 1.0 x579 - 1.0 x580 - 1.0 x581 + x588 + x589 + x590  = 0
r_00: + x1 + x2 + x3 + x4 + x5 + x6 + x7 + x8 + x9 + x10 + x11 + x12 + x13 + x14 + x15 + x16 + x17 + x18 + x19 + x20 + x21 + x22 + x23 + x24 + x25 + x26 + x27 + x28 + x29 + x30 + x31 + x32 + x33 + x34 + x35 + x36 + x37 + x38 + x39 + x40 + x41 + x42 + x43 + x44 + x45 + x46 + x47 + x48 + x49 + x50 + x51 + x52 + x53 + x54 + x55 + x56 + x57 + x58 + x59 + x60 + x61 + x62 + x63 + x64 + x65 + x66 + x67 + x68 + x69 + x70 + x71 + x72 + x73 + x74 + x75 + x76 + x77 + x78 + x79 + x80 + x81 + x82 + x83 + x84 + x85 + x86 + x87 + x88 + x89 + x90 + x91 + x92 + x93 + x94 + x95 + x96 + x97 + x98 + x99 + x100 + x101 + x102 + x103 + x104 + x105 + x106 + x107 + x108 + x109 + x110 + x111 + x112 + x113 + x114 + x115 + x116 + x117 + x118 + x119 + x120 + x121 + x122 + x123 + x124 + x125 + x126 + x127 + x128 + x129 + x130 + x131 + x132 + x133 + x134 + x135 + x136 + x137 + x138 + x139 + x140 + x141 + x142 + x143 + x144 + x145 + x146 + x147 + x148 + x149 + x150 + x151 + x152 + x153 + x154 + x155 + x156 + x157 + x158 + x159 + x160 + x161 + x162 + x163 + x164 + x165 + x166 + x167 + x168 + x169 + x170 + x171 + x172 + x173 + x174 + x175 + x176 + x177 + x178 + x179 + x180 + x181 + x182 + x183 + x184 + x185 + x186 + x187 + x188 + x189 + x190 + x191 + x192 + x193 + x194 + x195 + x196 + x197 + x198 + x199 + x200 + x201 + x202 + x203 + x204 + x205 + x206 + x207 + x208 + x209 + x210 + x211 + x212 + x213 + x214 + x215 + x216 + x217 + x218 + x219 + x220 + x221 + x222 + x223 + x224 + x225 + x226 + x227 + x228 + x229 + x230 + x231 + x232 + x233 + x234 + x235 + x236 + x237 + x238 + x239 + x240 + x241 + x242 + x243 + x244 + x245 + x246 + x247 + x248 + x249 + x250 + x251 + x252 + x253 + x254 + x255 + x256 + x257 + x258 + x259 + x260 + x261 + x262 + x263 + x264 + x265 + x266 + x267 + x268 + x269 + x270 + x271 + x272 + x273 + x274 + x275 + x276 + x277 + x278 + x279 + x280 + x281 + x282 + x283 + x284 + x285 + x286 + x287 + x288 + x289 + x290 + x291 + x292 + x293 + x294 + x295 + x296 + x297 + x298 + x299 + x300 + x301 + x302 + x303 + x304 + x305 + x306 + x307 + x308 + x309 + x310 + x311 + x312 + x313 + x314 + x315 + x316 + x317 + x318 + x319 + x320 + x321 + x322 + x323 + x324 + x325 + x326 + x327 + x328 + x329 + x330 + x331 + x332 + x333 + x334 + x335 + x336 + x337 + x338 + x339 + x340 + x341 + x342 + x343 + x344 + x345 + x346 + x347 + x348 + x349 + x350 + x351 + x352 + x353 + x354 + x355 + x356 + x357 + x358 + x359 + x360 + x361 + x362 + x363 + x364 + x365 + x366 + x367 + x368 + x369 + x370 + x371 + x372 + x373 + x374 + x375 + x376 + x377 + x378 + x379 + x380 + x381 + x382 + x383 + x384 + x385 + x386 + x387 + x388 + x389 + x390 + x391 + x392 + x393 + x394 + x395 + x396 + x397 + x398 + x399 + x400 + x401 + x402 + x403 + x404 + x405 + x406 + x407 + x408 + x409 + x410 + x411 + x412 + x413 + x414 + x415 + x416 + x417 + x418 + x419 + x420 + x421 + x422 + x423 + x424 + x425 + x426 + x427 + x428 + x429 + x430 + x431 + x432 + x433 + x434 + x435 + x436 + x437 + x438 + x439 + x440 + x441 + x442 + x443 + x444 + x445 + x446 + x447 + x448 + x449 + x450 + x451 + x452 + x453 + x454 + x455 + x456 + x457 + x458 + x459 + x460 + x461 + x462 + x463 + x464 + x465 + x466 + x467 + x468 + x469 + x470 + x471 + x472 + x473 + x474 + x475 + x476 + x477 + x478 + x479 + x480 + x481 + x482 + x483 + x484 + x485 + x486 + x487 + x488 + x489 + x490 + x491 + x492 + x493 + x494 + x495 + x496 + x497 + x498 + x499 + x500 + x501 + x502 + x503 + x504 + x505 + x506 + x507 + x508 + x509 + x510 + x511 + x512 + x513 + x514 + x515 + x516 + x517 + x518 + x519 + x520 + x521 + x522 + x523 + x524 + x525 + x526 + x527 + x528 + x529 + x530 + x531 + x532 + x533 + x534 + x535 + x536 + x537 + x538 + x539 + x540 + x541 + x542 + x543 + x544 + x545 + x546 + x547 + x548 + x549 + x550 + x551 + x552 + x553 + x554 + x555 + x556 + x557 + x558 + x559 + x560 + x561 + x562 + x563 + x564 + x565 + x566 + x567 + x568 + x569 + x570 + x571 + x572 + x573 + x574 + x575 + x576 + x577 + x578 + x579 + x580 + x581 + x582 + x583 + x584 + x585 + x586 + x587 + x588 + x589 + x590 = 1
End